Pd N O                                  
   1.00000000000000     
     8.2454599999999996    0.0000000000000000    0.0000000000000000
    -4.1227299999999998    7.1407800000000003    0.0000000000000000
     0.0000000000000000    0.0000000000000000   25.0000000000000000
   Pd   N    O 
    36     1     2
Selective dynamics
Direct
  0.0000000000000000  0.0000000000000000  0.1653521567560006   F   F   F
  0.9999995957370018  0.6666666666669983  0.1653521567560006   F   F   F
  0.6666662624040001  0.0000000000000000  0.1653521567560006   F   F   F
  0.6666658581410019  0.6666666666669983  0.1653521567560006   F   F   F
  0.3333331777919994  0.0000000000000000  0.1653521567560006   F   F   F
  0.3333327735290013  0.6666666666669983  0.1653521567560006   F   F   F
  0.9999999492560008  0.3333330763040010  0.1653521567560006   F   F   F
  0.6666662116600008  0.3333330763040010  0.1653521567560006   F   F   F
  0.3333331270480002  0.3333330763040010  0.1653521567560006   F   F   F
  0.1125599996483562  0.2224977607240221  0.2565252290775688   T   T   T
  0.1133265987788837  0.8901661259106647  0.2566015442140834   T   T   T
  0.7787841608563274  0.2229328601999057  0.2560854521102219   T   T   T
  0.7786201268741816  0.8893125017281128  0.2560376491824030   T   T   T
  0.4449666663578145  0.2228636360998326  0.2569835496435396   T   T   T
  0.4451088987710234  0.8893980049456564  0.2566952611251170   T   T   T
  0.1126496961591161  0.5570017829785414  0.2561353216863959   T   T   T
  0.7784985428593868  0.5563131330035427  0.2557801818837686   T   T   T
  0.4455499610575872  0.5561940543919311  0.2567502942163203   T   T   T
  0.2256357601374247  0.1152502214165173  0.3478196730515802   T   T   T
  0.2256393437795092  0.7787889463647194  0.3472235677738543   T   T   T
  0.8899412386568989  0.1114555117966431  0.3452043460698356   T   T   T
  0.8915266085080267  0.7796632522006143  0.3449474428808898   T   T   T
  0.5572083047231420  0.1124493370714924  0.3459628598678878   T   T   T
  0.5564311764052774  0.7790106512078385  0.3459910249385557   T   T   T
  0.2234890347690365  0.4456656220029555  0.3457198215231816   T   T   T
  0.8900382120993282  0.4462681012597475  0.3449925359991805   T   T   T
  0.5565604721625383  0.4455023160481508  0.3463941615036401   T   T   T
 -0.0001478846522048 -0.0000311155678176  0.4367842001521086   T   T   T
  0.0002545805512821  0.6682095439241632  0.4365507610824136   T   T   T
  0.6682025427696365  0.0019275798897723  0.4364050844035314   T   T   T
  0.6733520519846875  0.6709970430077790  0.4350836238620820   T   T   T
  0.3344770684072677  0.0014869083968401  0.4376263134468470   T   T   T
  0.3332209914903652  0.6687263478134856  0.4387141531287974   T   T   T
 -0.0026574048574807  0.3331743020303479  0.4348740911785392   T   T   T
  0.6689894197529972  0.3347814249957134  0.4364582444982090   T   T   T
  0.3338511368378117  0.3332075098796269  0.4397586138172407   T   T   T
  0.3410339354254838  0.4141736658494328  0.5158614871737807   T   T   T
  0.3400503456657279  0.5692278389778536  0.5210258905480919   T   T   T
  0.3455064181459774  0.3272324798354990  0.5547405574373132   T   T   T
 
  0.00000000E+00  0.00000000E+00  0.00000000E+00
  0.00000000E+00  0.00000000E+00  0.00000000E+00
  0.00000000E+00  0.00000000E+00  0.00000000E+00
  0.00000000E+00  0.00000000E+00  0.00000000E+00
  0.00000000E+00  0.00000000E+00  0.00000000E+00
  0.00000000E+00  0.00000000E+00  0.00000000E+00
  0.00000000E+00  0.00000000E+00  0.00000000E+00
  0.00000000E+00  0.00000000E+00  0.00000000E+00
  0.00000000E+00  0.00000000E+00  0.00000000E+00
  0.00000000E+00  0.00000000E+00  0.00000000E+00
  0.00000000E+00  0.00000000E+00  0.00000000E+00
  0.00000000E+00  0.00000000E+00  0.00000000E+00
  0.00000000E+00  0.00000000E+00  0.00000000E+00
  0.00000000E+00  0.00000000E+00  0.00000000E+00
  0.00000000E+00  0.00000000E+00  0.00000000E+00
  0.00000000E+00  0.00000000E+00  0.00000000E+00
  0.00000000E+00  0.00000000E+00  0.00000000E+00
  0.00000000E+00  0.00000000E+00  0.00000000E+00
  0.00000000E+00  0.00000000E+00  0.00000000E+00
  0.00000000E+00  0.00000000E+00  0.00000000E+00
  0.00000000E+00  0.00000000E+00  0.00000000E+00
  0.00000000E+00  0.00000000E+00  0.00000000E+00
  0.00000000E+00  0.00000000E+00  0.00000000E+00
  0.00000000E+00  0.00000000E+00  0.00000000E+00
  0.00000000E+00  0.00000000E+00  0.00000000E+00
  0.00000000E+00  0.00000000E+00  0.00000000E+00
  0.00000000E+00  0.00000000E+00  0.00000000E+00
  0.00000000E+00  0.00000000E+00  0.00000000E+00
  0.00000000E+00  0.00000000E+00  0.00000000E+00
  0.00000000E+00  0.00000000E+00  0.00000000E+00
  0.00000000E+00  0.00000000E+00  0.00000000E+00
  0.00000000E+00  0.00000000E+00  0.00000000E+00
  0.00000000E+00  0.00000000E+00  0.00000000E+00
  0.00000000E+00  0.00000000E+00  0.00000000E+00
  0.00000000E+00  0.00000000E+00  0.00000000E+00
  0.00000000E+00  0.00000000E+00  0.00000000E+00
  0.00000000E+00  0.00000000E+00  0.00000000E+00
  0.00000000E+00  0.00000000E+00  0.00000000E+00
  0.00000000E+00  0.00000000E+00  0.00000000E+00
