Pd N O                                  
   1.00000000000000     
     8.2454699999999992    0.0000000000000000    0.0000000000000000
     0.0000000000000000    8.2454699999999992    0.0000000000000000
     0.0000000000000000    0.0000000000000000   25.0000000000000000
   Pd   N    O 
    36     1     2
Selective dynamics
Direct
  0.1666663867650016  0.1666663867650016  0.1833915061249982   F   F   F
  0.1666663867650016  0.8333330534319998  0.1833915061249982   F   F   F
  0.8333330534319998  0.1666663867650016  0.1833915061249982   F   F   F
  0.8333330534319998  0.8333330534319998  0.1833915061249982   F   F   F
  0.4999991602949976  0.1666663867650016  0.1833915061249982   F   F   F
  0.4999991602949976  0.8333330534319998  0.1833915061249982   F   F   F
  0.1666663867650016  0.4999991602949976  0.1833915061249982   F   F   F
  0.8333330534319998  0.4999991602949976  0.1833915061249982   F   F   F
  0.4999991602949976  0.4999991602949976  0.1833915061249982   F   F   F
  0.9987699391793581  0.9999518408856947  0.2612784494659655   T   T   T
  0.9991885671285851  0.6664761991285687  0.2611195537632387   T   T   T
  0.6661822311983967  0.0011837820186360  0.2614845379934971   T   T   T
  0.6669591250868417  0.6672993102928263  0.2616587734254367   T   T   T
  0.3326722549976933  0.9999772941981733  0.2612683048504638   T   T   T
  0.3329672252350194  0.6651987799667020  0.2613401915068563   T   T   T
  0.0003056029552022  0.3334419124549876  0.2617900807321208   T   T   T
  0.6669728564468597  0.3339622218516395  0.2617075205913899   T   T   T
  0.3344154124521241  0.3324718399167712  0.2616987319193780   T   T   T
  0.1672120713405983  0.1663226201896846  0.3391920448680200   T   T   T
  0.1647885517585571  0.8326916975000370  0.3383724878635952   T   T   T
  0.8325608100567191  0.1691805448509306  0.3399297770369317   T   T   T
  0.8303913018663428  0.8364672009937746  0.3399512915568322   T   T   T
  0.5012233821108831  0.1671920788626705  0.3402525396469250   T   T   T
  0.4979566109475163  0.8330628490078891  0.3385820120555892   T   T   T
  0.1676260040085151  0.4980733830319792  0.3396377930645896   T   T   T
  0.8326703907964386  0.5004141240636243  0.3397392898455788   T   T   T
  0.5009958150847741  0.4987870586327079  0.3397876516115395   T   T   T
  0.0001858832146978  0.9997070305948939  0.4173317548321161   T   T   T
  0.9997464206968465  0.6673951636170390  0.4175019433209824   T   T   T
  0.6668898464393668  0.9935354464831632  0.4184984268314268   T   T   T
  0.6652870705301256  0.6686249648250769  0.4173331024975867   T   T   T
  0.3279343039547277  0.9948925509563225  0.4174728973293947   T   T   T
  0.3311179999499327  0.6668158022493745  0.4169064312132809   T   T   T
  0.0024026116168222  0.3341174048482072  0.4176520983259412   T   T   T
  0.6764954063992756  0.3451571203759620  0.4237724141224093   T   T   T
  0.3277686522456637  0.3322482065521902  0.4201379807327240   T   T   T
  0.4925189050621632  0.3139559775264862  0.4788940317941670   T   T   T
  0.6045676606399987  0.1202219043626918  0.4797784835494192   T   T   T
  0.4873674006414007  0.3666981673417695  0.5232324003040609   T   T   T
 
  0.00000000E+00  0.00000000E+00  0.00000000E+00
  0.00000000E+00  0.00000000E+00  0.00000000E+00
  0.00000000E+00  0.00000000E+00  0.00000000E+00
  0.00000000E+00  0.00000000E+00  0.00000000E+00
  0.00000000E+00  0.00000000E+00  0.00000000E+00
  0.00000000E+00  0.00000000E+00  0.00000000E+00
  0.00000000E+00  0.00000000E+00  0.00000000E+00
  0.00000000E+00  0.00000000E+00  0.00000000E+00
  0.00000000E+00  0.00000000E+00  0.00000000E+00
  0.00000000E+00  0.00000000E+00  0.00000000E+00
  0.00000000E+00  0.00000000E+00  0.00000000E+00
  0.00000000E+00  0.00000000E+00  0.00000000E+00
  0.00000000E+00  0.00000000E+00  0.00000000E+00
  0.00000000E+00  0.00000000E+00  0.00000000E+00
  0.00000000E+00  0.00000000E+00  0.00000000E+00
  0.00000000E+00  0.00000000E+00  0.00000000E+00
  0.00000000E+00  0.00000000E+00  0.00000000E+00
  0.00000000E+00  0.00000000E+00  0.00000000E+00
  0.00000000E+00  0.00000000E+00  0.00000000E+00
  0.00000000E+00  0.00000000E+00  0.00000000E+00
  0.00000000E+00  0.00000000E+00  0.00000000E+00
  0.00000000E+00  0.00000000E+00  0.00000000E+00
  0.00000000E+00  0.00000000E+00  0.00000000E+00
  0.00000000E+00  0.00000000E+00  0.00000000E+00
  0.00000000E+00  0.00000000E+00  0.00000000E+00
  0.00000000E+00  0.00000000E+00  0.00000000E+00
  0.00000000E+00  0.00000000E+00  0.00000000E+00
  0.00000000E+00  0.00000000E+00  0.00000000E+00
  0.00000000E+00  0.00000000E+00  0.00000000E+00
  0.00000000E+00  0.00000000E+00  0.00000000E+00
  0.00000000E+00  0.00000000E+00  0.00000000E+00
  0.00000000E+00  0.00000000E+00  0.00000000E+00
  0.00000000E+00  0.00000000E+00  0.00000000E+00
  0.00000000E+00  0.00000000E+00  0.00000000E+00
  0.00000000E+00  0.00000000E+00  0.00000000E+00
  0.00000000E+00  0.00000000E+00  0.00000000E+00
  0.00000000E+00  0.00000000E+00  0.00000000E+00
  0.00000000E+00  0.00000000E+00  0.00000000E+00
  0.00000000E+00  0.00000000E+00  0.00000000E+00
