Pd N O                                  
   1.00000000000000     
     8.2454599999999996    0.0000000000000000    0.0000000000000000
    -4.1227299999999998    7.1407800000000003    0.0000000000000000
     0.0000000000000000    0.0000000000000000   25.0000000000000000
   Pd   N    O 
    36     1     3
Selective dynamics
Direct
  0.0000000000000000  0.0000000000000000  0.1653521567560006   F   F   F
  0.9999995957370017  0.6666666666669983  0.1653521567560006   F   F   F
  0.6666662624040001  0.0000000000000000  0.1653521567560006   F   F   F
  0.6666658581410019  0.6666666666669983  0.1653521567560006   F   F   F
  0.3333331777919994  0.0000000000000000  0.1653521567560006   F   F   F
  0.3333327735290013  0.6666666666669983  0.1653521567560006   F   F   F
  0.9999999492560008  0.3333330763040009  0.1653521567560006   F   F   F
  0.6666662116600008  0.3333330763040009  0.1653521567560006   F   F   F
  0.3333331270480001  0.3333330763040009  0.1653521567560006   F   F   F
  0.1125459128137929  0.2236148181289093  0.2564177942009550   T   T   T
  0.1124015137590842  0.8891429863250130  0.2561921281694475   T   T   T
  0.7796442346581202  0.2235120167380576  0.2563618696808237   T   T   T
  0.7789038383269324  0.8893569392810980  0.2560527039961903   T   T   T
  0.4455535558013312  0.2226069360233653  0.2563222973731095   T   T   T
  0.4451683869682008  0.8890351778194564  0.2561693257620728   T   T   T
  0.1122764856837575  0.5560847328079416  0.2574549569295524   T   T   T
  0.7795775580433071  0.5559993610642749  0.2562049122845678   T   T   T
  0.4448929599594419  0.5560337411734173  0.2562843186301214   T   T   T
  0.2248416446256482  0.1121234061206404  0.3454295454661153   T   T   T
  0.2250796035497616  0.7803093289992041  0.3468119435998622   T   T   T
  0.8913164529525686  0.1127031425681798  0.3455001250412636   T   T   T
  0.8914481899452070  0.7791613017206405  0.3453952985161677   T   T   T
  0.5572111412420679  0.1119845919895278  0.3454035767576648   T   T   T
  0.5573909550117508  0.7791008957123093  0.3454313824689064   T   T   T
  0.2253255872307438  0.4446300629711132  0.3475541767231555   T   T   T
  0.8889868935866103  0.4444982843352915  0.3473694291435257   T   T   T
  0.5578417314763972  0.4458925114470357  0.3451869918010217   T   T   T
  0.0023516409886422  0.0025827205275139  0.4359195801740287   T   T   T
  0.0040690213356460  0.6704385144425250  0.4373813923854017   T   T   T
  0.6713346084791081  0.0021676182748836  0.4360037385654313   T   T   T
  0.6716846959099829  0.6724207999172449  0.4358822811645615   T   T   T
  0.3332868687319056  0.9948221272216956  0.4378096861797327   T   T   T
  0.3369864749618697  0.6708609806114532  0.4375959234889969   T   T   T
  0.0034554506273423  0.3365908487985534  0.4375545596006567   T   T   T
  0.6788238130542763  0.3406477198804551  0.4369233173049348   T   T   T
  0.3331225613351061  0.3418917315703808  0.4370361632359818   T   T   T
  0.5080079141645446  0.3318617568173948  0.5552358211751588   T   T   T
  0.4507546710902179  0.2377706249470642  0.4896616533997284   T   T   T
  0.5077587452239628  0.4774220447320442  0.5595813593142375   T   T   T
  0.5360540723478522  0.2344585200868874  0.5852421298178053   T   T   T
 
             NaN             NaN             NaN
             NaN             NaN             NaN
             NaN             NaN             NaN
             NaN             NaN             NaN
             NaN             NaN             NaN
             NaN             NaN             NaN
             NaN             NaN             NaN
             NaN             NaN             NaN
             NaN             NaN             NaN
             NaN             NaN             NaN
             NaN             NaN             NaN
             NaN             NaN             NaN
             NaN             NaN             NaN
             NaN             NaN             NaN
             NaN             NaN             NaN
             NaN             NaN             NaN
             NaN             NaN             NaN
             NaN             NaN             NaN
             NaN             NaN             NaN
             NaN             NaN             NaN
             NaN             NaN             NaN
             NaN             NaN             NaN
             NaN             NaN             NaN
             NaN             NaN             NaN
             NaN             NaN             NaN
             NaN             NaN             NaN
             NaN             NaN             NaN
             NaN             NaN             NaN
             NaN             NaN             NaN
             NaN             NaN             NaN
             NaN             NaN             NaN
             NaN             NaN             NaN
             NaN             NaN             NaN
             NaN             NaN             NaN
             NaN             NaN             NaN
             NaN             NaN             NaN
             NaN             NaN             NaN
             NaN             NaN             NaN
             NaN             NaN             NaN
             NaN             NaN             NaN
