Pd N O                                  
   1.00000000000000     
     8.2454599999999996    0.0000000000000000    0.0000000000000000
    -4.1227299999999998    7.1407800000000003    0.0000000000000000
     0.0000000000000000    0.0000000000000000   25.0000000000000000
   Pd   N    O 
    36     1     1
Selective dynamics
Direct
  0.0000000000000000  0.0000000000000000  0.1653521567560006   F   F   F
  0.9999995957370018  0.6666666666669983  0.1653521567560006   F   F   F
  0.6666662624040001  0.0000000000000000  0.1653521567560006   F   F   F
  0.6666658581410019  0.6666666666669983  0.1653521567560006   F   F   F
  0.3333331777919994  0.0000000000000000  0.1653521567560006   F   F   F
  0.3333327735290013  0.6666666666669983  0.1653521567560006   F   F   F
  0.9999999492560008  0.3333330763040010  0.1653521567560006   F   F   F
  0.6666662116600008  0.3333330763040010  0.1653521567560006   F   F   F
  0.3333331270480002  0.3333330763040010  0.1653521567560006   F   F   F
  0.1115448621705163  0.2199819870834695  0.2563117090112824   T   T   T
  0.1109783815105491  0.8866706145148814  0.2560827411100988   T   T   T
  0.7777140966438922  0.2200395722698162  0.2560165102528925   T   T   T
  0.7777458221658228  0.8862274009297665  0.2563249425837991   T   T   T
  0.4438210853899665  0.2199451390707244  0.2563304961745852   T   T   T
  0.4438306619019748  0.8862113236824396  0.2563110766034931   T   T   T
  0.1115380187363562  0.5538793723019407  0.2563150124324531   T   T   T
  0.7777476061755875  0.5538626360568752  0.2563492517237619   T   T   T
  0.4444341944423689  0.5533627000285274  0.2569378669986917   T   T   T
  0.2226880136665958  0.1086842072655105  0.3468239061132153   T   T   T
  0.2227222613700275  0.7732507491071626  0.3467846313409751   T   T   T
  0.8888716293414020  0.1072343038189374  0.3453035565822637   T   T   T
  0.8871506701608169  0.7732371562984192  0.3468427229767651   T   T   T
  0.5550635516144237  0.1072058288057259  0.3452935659620132   T   T   T
  0.5552270573696074  0.7736947771880988  0.3463753257289258   T   T   T
  0.2223634472553290  0.4407813476424988  0.3463561644815497   T   T   T
  0.8888502257659571  0.4409954551627951  0.3452999386816203   T   T   T
  0.5551242401864352  0.4408019967035248  0.3464159029557546   T   T   T
 -0.0007468138825526 -0.0046657153407591  0.4369466718874381   T   T   T
 -0.0007190794956968  0.6612832840266525  0.4369156253314179   T   T   T
  0.6678969700274150  0.9984149690994032  0.4360171018324365   T   T   T
  0.6710903561643972  0.6641798240857094  0.4403938286759927   T   T   T
  0.3334263248242142  0.9953519941981709  0.4369132217930803   T   T   T
  0.3304130648312228  0.6641763239797064  0.4402417476076103   T   T   T
 -0.0038132242218610  0.3267750674620009  0.4360084938052676   T   T   T
  0.6679171832098632  0.3267507604652115  0.4360058229121145   T   T   T
  0.3303541695885747  0.3234048753035174  0.4402835702252392   T   T   T
  0.4435351698926775  0.5502410788422277  0.4886795867862303   T   T   T
  0.4429634924041804  0.5499001373453672  0.5371449747346494   T   T   T
 
  0.00000000E+00  0.00000000E+00  0.00000000E+00
  0.00000000E+00  0.00000000E+00  0.00000000E+00
  0.00000000E+00  0.00000000E+00  0.00000000E+00
  0.00000000E+00  0.00000000E+00  0.00000000E+00
  0.00000000E+00  0.00000000E+00  0.00000000E+00
  0.00000000E+00  0.00000000E+00  0.00000000E+00
  0.00000000E+00  0.00000000E+00  0.00000000E+00
  0.00000000E+00  0.00000000E+00  0.00000000E+00
  0.00000000E+00  0.00000000E+00  0.00000000E+00
  0.00000000E+00  0.00000000E+00  0.00000000E+00
  0.00000000E+00  0.00000000E+00  0.00000000E+00
  0.00000000E+00  0.00000000E+00  0.00000000E+00
  0.00000000E+00  0.00000000E+00  0.00000000E+00
  0.00000000E+00  0.00000000E+00  0.00000000E+00
  0.00000000E+00  0.00000000E+00  0.00000000E+00
  0.00000000E+00  0.00000000E+00  0.00000000E+00
  0.00000000E+00  0.00000000E+00  0.00000000E+00
  0.00000000E+00  0.00000000E+00  0.00000000E+00
  0.00000000E+00  0.00000000E+00  0.00000000E+00
  0.00000000E+00  0.00000000E+00  0.00000000E+00
  0.00000000E+00  0.00000000E+00  0.00000000E+00
  0.00000000E+00  0.00000000E+00  0.00000000E+00
  0.00000000E+00  0.00000000E+00  0.00000000E+00
  0.00000000E+00  0.00000000E+00  0.00000000E+00
  0.00000000E+00  0.00000000E+00  0.00000000E+00
  0.00000000E+00  0.00000000E+00  0.00000000E+00
  0.00000000E+00  0.00000000E+00  0.00000000E+00
  0.00000000E+00  0.00000000E+00  0.00000000E+00
  0.00000000E+00  0.00000000E+00  0.00000000E+00
  0.00000000E+00  0.00000000E+00  0.00000000E+00
  0.00000000E+00  0.00000000E+00  0.00000000E+00
  0.00000000E+00  0.00000000E+00  0.00000000E+00
  0.00000000E+00  0.00000000E+00  0.00000000E+00
  0.00000000E+00  0.00000000E+00  0.00000000E+00
  0.00000000E+00  0.00000000E+00  0.00000000E+00
  0.00000000E+00  0.00000000E+00  0.00000000E+00
  0.00000000E+00  0.00000000E+00  0.00000000E+00
  0.00000000E+00  0.00000000E+00  0.00000000E+00
