Pd O                                    
   1.00000000000000     
     8.2454599999999996    0.0000000000000000    0.0000000000000000
    -4.1227299999999998    7.1407800000000003    0.0000000000000000
     0.0000000000000000    0.0000000000000000   25.0000000000000000
   Pd   O 
    36     1
Selective dynamics
Direct
  0.0000000000000000  0.0000000000000000  0.1653521567560006   F   F   F
  0.9999995957370018  0.6666666666669983  0.1653521567560006   F   F   F
  0.6666662624040001  0.0000000000000000  0.1653521567560006   F   F   F
  0.6666658581410019  0.6666666666669983  0.1653521567560006   F   F   F
  0.3333331777919994  0.0000000000000000  0.1653521567560006   F   F   F
  0.3333327735290013  0.6666666666669983  0.1653521567560006   F   F   F
  0.9999999492560008  0.3333330763040010  0.1653521567560006   F   F   F
  0.6666662116600008  0.3333330763040010  0.1653521567560006   F   F   F
  0.3333331270480002  0.3333330763040010  0.1653521567560006   F   F   F
  0.1102366696528709  0.2221522023105571  0.2564560625635248   T   T   T
  0.1102274342919758  0.8893517249362924  0.2564533648853211   T   T   T
  0.7773553324812322  0.2221495040622872  0.2564670721157407   T   T   T
  0.7773768605384845  0.8893061391723447  0.2567753627696511   T   T   T
  0.4440021035904343  0.2225517310981092  0.2560783365518158   T   T   T
  0.4445556505310391  0.8893489028558992  0.2564563648033360   T   T   T
  0.1106709308857807  0.5559014467008235  0.2565711601182523   T   T   T
  0.7774065350004989  0.5564570293388182  0.2563731109239715   T   T   T
  0.4444919862246033  0.5564500363564914  0.2563690046328362   T   T   T
  0.2210979775318328  0.1116689791433316  0.3456912007536955   T   T   T
  0.2212888773824969  0.7782307106578150  0.3459915705667635   T   T   T
  0.8888948669833520  0.1134783748588159  0.3474465022562357   T   T   T
  0.8888809975354596  0.7778808025931984  0.3474282269436269   T   T   T
  0.5549429843525552  0.1116701089536899  0.3456975675407267   T   T   T
  0.5533144161371641  0.7778602800794332  0.3474198271669897   T   T   T
  0.2213614358501723  0.4454229237359100  0.3459598862072089   T   T   T
  0.8884810455261762  0.4454601369681794  0.3459752596049274   T   T   T
  0.5550301717451969  0.4456361011458865  0.3455374142601887   T   T   T
  0.9988513247230602  0.0012577039344253  0.4377642971957406   T   T   T
  0.9948568431937930  0.6721644172738058  0.4391076834859174   T   T   T
  0.6658923583851274  0.0012583438005970  0.4377665456132259   T   T   T
  0.6657167759043540  0.6679132095628998  0.4376394796052377   T   T   T
  0.3338004169222606  0.0041112997839607  0.4363332432462190   T   T   T
  0.3407786580124038  0.6721373983216052  0.4391029561252371   T   T   T
  0.9949750201712094  0.3264301450120445  0.4391365257320509   T   T   T
  0.6626915158883286  0.3330215344499605  0.4361976655563744   T   T   T
  0.3338622728345770  0.3330484289815577  0.4361823274606986   T   T   T
  0.1102648416740009  0.5570906125535630  0.4837906458815951   T   T   T
 
  0.00000000E+00  0.00000000E+00  0.00000000E+00
  0.00000000E+00  0.00000000E+00  0.00000000E+00
  0.00000000E+00  0.00000000E+00  0.00000000E+00
  0.00000000E+00  0.00000000E+00  0.00000000E+00
  0.00000000E+00  0.00000000E+00  0.00000000E+00
  0.00000000E+00  0.00000000E+00  0.00000000E+00
  0.00000000E+00  0.00000000E+00  0.00000000E+00
  0.00000000E+00  0.00000000E+00  0.00000000E+00
  0.00000000E+00  0.00000000E+00  0.00000000E+00
  0.00000000E+00  0.00000000E+00  0.00000000E+00
  0.00000000E+00  0.00000000E+00  0.00000000E+00
  0.00000000E+00  0.00000000E+00  0.00000000E+00
  0.00000000E+00  0.00000000E+00  0.00000000E+00
  0.00000000E+00  0.00000000E+00  0.00000000E+00
  0.00000000E+00  0.00000000E+00  0.00000000E+00
  0.00000000E+00  0.00000000E+00  0.00000000E+00
  0.00000000E+00  0.00000000E+00  0.00000000E+00
  0.00000000E+00  0.00000000E+00  0.00000000E+00
  0.00000000E+00  0.00000000E+00  0.00000000E+00
  0.00000000E+00  0.00000000E+00  0.00000000E+00
  0.00000000E+00  0.00000000E+00  0.00000000E+00
  0.00000000E+00  0.00000000E+00  0.00000000E+00
  0.00000000E+00  0.00000000E+00  0.00000000E+00
  0.00000000E+00  0.00000000E+00  0.00000000E+00
  0.00000000E+00  0.00000000E+00  0.00000000E+00
  0.00000000E+00  0.00000000E+00  0.00000000E+00
  0.00000000E+00  0.00000000E+00  0.00000000E+00
  0.00000000E+00  0.00000000E+00  0.00000000E+00
  0.00000000E+00  0.00000000E+00  0.00000000E+00
  0.00000000E+00  0.00000000E+00  0.00000000E+00
  0.00000000E+00  0.00000000E+00  0.00000000E+00
  0.00000000E+00  0.00000000E+00  0.00000000E+00
  0.00000000E+00  0.00000000E+00  0.00000000E+00
  0.00000000E+00  0.00000000E+00  0.00000000E+00
  0.00000000E+00  0.00000000E+00  0.00000000E+00
  0.00000000E+00  0.00000000E+00  0.00000000E+00
  0.00000000E+00  0.00000000E+00  0.00000000E+00
