Pd N O                                  
   1.00000000000000     
     8.2454699999999992    0.0000000000000000    0.0000000000000000
     0.0000000000000000    8.2454699999999992    0.0000000000000000
     0.0000000000000000    0.0000000000000000   25.0000000000000000
   Pd   N    O 
    36     1     2
Selective dynamics
Direct
  0.1666663867650016  0.1666663867650016  0.1833915061249982   F   F   F
  0.1666663867650016  0.8333330534319998  0.1833915061249982   F   F   F
  0.8333330534319998  0.1666663867650016  0.1833915061249982   F   F   F
  0.8333330534319998  0.8333330534319998  0.1833915061249982   F   F   F
  0.4999991602949976  0.1666663867650016  0.1833915061249982   F   F   F
  0.4999991602949976  0.8333330534319998  0.1833915061249982   F   F   F
  0.1666663867650016  0.4999991602949976  0.1833915061249982   F   F   F
  0.8333330534319998  0.4999991602949976  0.1833915061249982   F   F   F
  0.4999991602949976  0.4999991602949976  0.1833915061249982   F   F   F
  0.0001428934279318  0.0004939811753271  0.2612503831749766   T   T   T
  0.0001422389944888  0.6661105889982684  0.2612641945833046   T   T   T
  0.6669975182287015  0.0006314828903778  0.2613408905281114   T   T   T
  0.6670036337421840  0.6659879686090979  0.2613413798597541   T   T   T
  0.3335160427132318  0.0006196844456455  0.2615221235968017   T   T   T
  0.3335142716722725  0.6660623244551983  0.2615180105477806   T   T   T
  0.0008915016453493  0.3333178971144595  0.2619340299931858   T   T   T
  0.6668031276009455  0.3333127905705247  0.2616935298427294   T   T   T
  0.3346722698557933  0.3333384892715706  0.2616287623897720   T   T   T
  0.1690209943772328  0.1682426124501454  0.3397925797094065   T   T   T
  0.1666889023686367  0.8333082617377705  0.3385408570558122   T   T   T
  0.8335724550979918  0.1680227833812282  0.3396706018200210   T   T   T
  0.8343429596966158  0.8332502397282877  0.3385497794552217   T   T   T
  0.5012078042219230  0.1677839001468117  0.3400781775915948   T   T   T
  0.5007160682104046  0.8333287105948944  0.3384857850753071   T   T   T
  0.1690822010046026  0.4983623747380195  0.3398055843639778   T   T   T
  0.8335385088058537  0.4984706442742652  0.3396884231829252   T   T   T
  0.5012089962033278  0.4989275668358290  0.3400775988930216   T   T   T
  0.0006610874570471 -0.0012791023099765  0.4172108358891881   T   T   T
  0.0006888080387550  0.6677607294862488  0.4172187224326380   T   T   T
  0.6679234976590752 -0.0021276653499633  0.4167327096321884   T   T   T
  0.6679300252832264  0.6686603437450095  0.4167480509984311   T   T   T
  0.3343338915993718 -0.0019594134622682  0.4167270382024942   T   T   T
  0.3343643036278086  0.6687702712596377  0.4167503199357143   T   T   T
  0.0018496369877656  0.3332547642084366  0.4179202847202952   T   T   T
  0.6761122905226480  0.3332797248493531  0.4204593393585498   T   T   T
  0.3266734495369324  0.3334762589744895  0.4211865533413531   T   T   T
  0.4153122942665680  0.3327461900026513  0.4956213498937044   T   T   T
  0.5719869820359722  0.3324625516162522  0.4989736441585713   T   T   T
  0.3321371956108774  0.3326587360957155  0.5360473884033468   T   T   T
 
  0.00000000E+00  0.00000000E+00  0.00000000E+00
  0.00000000E+00  0.00000000E+00  0.00000000E+00
  0.00000000E+00  0.00000000E+00  0.00000000E+00
  0.00000000E+00  0.00000000E+00  0.00000000E+00
  0.00000000E+00  0.00000000E+00  0.00000000E+00
  0.00000000E+00  0.00000000E+00  0.00000000E+00
  0.00000000E+00  0.00000000E+00  0.00000000E+00
  0.00000000E+00  0.00000000E+00  0.00000000E+00
  0.00000000E+00  0.00000000E+00  0.00000000E+00
  0.00000000E+00  0.00000000E+00  0.00000000E+00
  0.00000000E+00  0.00000000E+00  0.00000000E+00
  0.00000000E+00  0.00000000E+00  0.00000000E+00
  0.00000000E+00  0.00000000E+00  0.00000000E+00
  0.00000000E+00  0.00000000E+00  0.00000000E+00
  0.00000000E+00  0.00000000E+00  0.00000000E+00
  0.00000000E+00  0.00000000E+00  0.00000000E+00
  0.00000000E+00  0.00000000E+00  0.00000000E+00
  0.00000000E+00  0.00000000E+00  0.00000000E+00
  0.00000000E+00  0.00000000E+00  0.00000000E+00
  0.00000000E+00  0.00000000E+00  0.00000000E+00
  0.00000000E+00  0.00000000E+00  0.00000000E+00
  0.00000000E+00  0.00000000E+00  0.00000000E+00
  0.00000000E+00  0.00000000E+00  0.00000000E+00
  0.00000000E+00  0.00000000E+00  0.00000000E+00
  0.00000000E+00  0.00000000E+00  0.00000000E+00
  0.00000000E+00  0.00000000E+00  0.00000000E+00
  0.00000000E+00  0.00000000E+00  0.00000000E+00
  0.00000000E+00  0.00000000E+00  0.00000000E+00
  0.00000000E+00  0.00000000E+00  0.00000000E+00
  0.00000000E+00  0.00000000E+00  0.00000000E+00
  0.00000000E+00  0.00000000E+00  0.00000000E+00
  0.00000000E+00  0.00000000E+00  0.00000000E+00
  0.00000000E+00  0.00000000E+00  0.00000000E+00
  0.00000000E+00  0.00000000E+00  0.00000000E+00
  0.00000000E+00  0.00000000E+00  0.00000000E+00
  0.00000000E+00  0.00000000E+00  0.00000000E+00
  0.00000000E+00  0.00000000E+00  0.00000000E+00
  0.00000000E+00  0.00000000E+00  0.00000000E+00
  0.00000000E+00  0.00000000E+00  0.00000000E+00
