Pd                                      
   1.00000000000000     
     8.2454699999999992    0.0000000000000000    0.0000000000000000
     0.0000000000000000    8.2454699999999992    0.0000000000000000
     0.0000000000000000    0.0000000000000000   25.0000000000000000
   Pd
    36
Selective dynamics
Direct
  0.1666663867650016  0.1666663867650016  0.1833915061249982   F   F   F
  0.1666663867650016  0.8333330534319998  0.1833915061249982   F   F   F
  0.8333330534319998  0.1666663867650016  0.1833915061249982   F   F   F
  0.8333330534319998  0.8333330534319998  0.1833915061249982   F   F   F
  0.4999991602949976  0.1666663867650016  0.1833915061249982   F   F   F
  0.4999991602949976  0.8333330534319998  0.1833915061249982   F   F   F
  0.1666663867650016  0.4999991602949976  0.1833915061249982   F   F   F
  0.8333330534319998  0.4999991602949976  0.1833915061249982   F   F   F
  0.4999991602949976  0.4999991602949976  0.1833915061249982   F   F   F
 -0.0000000000000000 -0.0000000000000000  0.2612480382860298   T   T   T
 -0.0000000000000000  0.6666666666669983  0.2612480382860298   T   T   T
  0.6666666666669983 -0.0000000000000000  0.2612480382860298   T   T   T
  0.6666666666669983  0.6666666666669983  0.2612480382860298   T   T   T
  0.3333327735300031 -0.0000000000000000  0.2612480382860298   T   T   T
  0.3333327735300031  0.6666666666669983  0.2612480382860298   T   T   T
 -0.0000000000000000  0.3333327735300031  0.2612480382860298   T   T   T
  0.6666666666669983  0.3333327735300031  0.2612480382860298   T   T   T
  0.3333327735300031  0.3333327735300031  0.2612480382860298   T   T   T
  0.1666663867650016  0.1666663867650016  0.3389141263831058   T   T   T
  0.1666663867650016  0.8333330534319998  0.3389141263831058   T   T   T
  0.8333330534319998  0.1666663867650016  0.3389141263831058   T   T   T
  0.8333330534319998  0.8333330534319998  0.3389141263831058   T   T   T
  0.4999991602949976  0.1666663867650016  0.3389141263831058   T   T   T
  0.4999991602949976  0.8333330534319998  0.3389141263831058   T   T   T
  0.1666663867650016  0.4999991602949976  0.3389141263831058   T   T   T
  0.8333330534319998  0.4999991602949976  0.3389141263831058   T   T   T
  0.4999991602949976  0.4999991602949976  0.3389141263831058   T   T   T
 -0.0000000000000000 -0.0000000000000000  0.4169813501846288   T   T   T
 -0.0000000000000000  0.6666666666669983  0.4169813501846288   T   T   T
  0.6666666666669983  0.0000000000000000  0.4169813501846288   T   T   T
  0.6666666666669983  0.6666666666669983  0.4169813501846288   T   T   T
  0.3333327735300031 -0.0000000000000000  0.4169813501846288   T   T   T
  0.3333327735300031  0.6666666666669983  0.4169813501846288   T   T   T
 -0.0000000000000000  0.3333327735300031  0.4169813501846288   T   T   T
  0.6666666666669983  0.3333327735300031  0.4169813501846288   T   T   T
  0.3333327735300031  0.3333327735300031  0.4169813501846288   T   T   T
 
  0.00000000E+00  0.00000000E+00  0.00000000E+00
  0.00000000E+00  0.00000000E+00  0.00000000E+00
  0.00000000E+00  0.00000000E+00  0.00000000E+00
  0.00000000E+00  0.00000000E+00  0.00000000E+00
  0.00000000E+00  0.00000000E+00  0.00000000E+00
  0.00000000E+00  0.00000000E+00  0.00000000E+00
  0.00000000E+00  0.00000000E+00  0.00000000E+00
  0.00000000E+00  0.00000000E+00  0.00000000E+00
  0.00000000E+00  0.00000000E+00  0.00000000E+00
  0.00000000E+00  0.00000000E+00  0.00000000E+00
  0.00000000E+00  0.00000000E+00  0.00000000E+00
  0.00000000E+00  0.00000000E+00  0.00000000E+00
  0.00000000E+00  0.00000000E+00  0.00000000E+00
  0.00000000E+00  0.00000000E+00  0.00000000E+00
  0.00000000E+00  0.00000000E+00  0.00000000E+00
  0.00000000E+00  0.00000000E+00  0.00000000E+00
  0.00000000E+00  0.00000000E+00  0.00000000E+00
  0.00000000E+00  0.00000000E+00  0.00000000E+00
  0.00000000E+00  0.00000000E+00  0.00000000E+00
  0.00000000E+00  0.00000000E+00  0.00000000E+00
  0.00000000E+00  0.00000000E+00  0.00000000E+00
  0.00000000E+00  0.00000000E+00  0.00000000E+00
  0.00000000E+00  0.00000000E+00  0.00000000E+00
  0.00000000E+00  0.00000000E+00  0.00000000E+00
  0.00000000E+00  0.00000000E+00  0.00000000E+00
  0.00000000E+00  0.00000000E+00  0.00000000E+00
  0.00000000E+00  0.00000000E+00  0.00000000E+00
  0.00000000E+00  0.00000000E+00  0.00000000E+00
  0.00000000E+00  0.00000000E+00  0.00000000E+00
  0.00000000E+00  0.00000000E+00  0.00000000E+00
  0.00000000E+00  0.00000000E+00  0.00000000E+00
  0.00000000E+00  0.00000000E+00  0.00000000E+00
  0.00000000E+00  0.00000000E+00  0.00000000E+00
  0.00000000E+00  0.00000000E+00  0.00000000E+00
  0.00000000E+00  0.00000000E+00  0.00000000E+00
  0.00000000E+00  0.00000000E+00  0.00000000E+00
