Pd N O                                  
   1.00000000000000     
     8.2454599999999996    0.0000000000000000    0.0000000000000000
    -4.1227299999999998    7.1407800000000003    0.0000000000000000
     0.0000000000000000    0.0000000000000000   25.0000000000000000
   Pd   N    O 
    36     1     2
Selective dynamics
Direct
  0.0000000000000000  0.0000000000000000  0.1653521567560006   F   F   F
  0.9999995957370018  0.6666666666669983  0.1653521567560006   F   F   F
  0.6666662624040001  0.0000000000000000  0.1653521567560006   F   F   F
  0.6666658581410019  0.6666666666669983  0.1653521567560006   F   F   F
  0.3333331777919994  0.0000000000000000  0.1653521567560006   F   F   F
  0.3333327735290013  0.6666666666669983  0.1653521567560006   F   F   F
  0.9999999492560008  0.3333330763040010  0.1653521567560006   F   F   F
  0.6666662116600008  0.3333330763040010  0.1653521567560006   F   F   F
  0.3333331270480002  0.3333330763040010  0.1653521567560006   F   F   F
  0.1128791568764361  0.2237288546102989  0.2566612998933930   T   T   T
  0.1133015385799449  0.8909000656349826  0.2559386634661482   T   T   T
  0.7801476394819087  0.2238532195269923  0.2565732288584351   T   T   T
  0.7791322506990664  0.8905969187348898  0.2563859568263775   T   T   T
  0.4463658003169081  0.2242375627261715  0.2564894813375454   T   T   T
  0.4466439740062717  0.8905475325302897  0.2565829404402160   T   T   T
  0.1131740232256374  0.5572878688620259  0.2562616628859112   T   T   T
  0.7799499484006208  0.5571559553169549  0.2558587394114510   T   T   T
  0.4469693514418043  0.5577947087099666  0.2566554985277933   T   T   T
  0.2268665848743678  0.1145358101176990  0.3463007666211480   T   T   T
  0.2256605297824519  0.7805697505387601  0.3455516314058280   T   T   T
  0.8927176232213550  0.1150516586174508  0.3469207632872904   T   T   T
  0.8918881099330010  0.7804728871459254  0.3448107846193755   T   T   T
  0.5592292446388388  0.1136745055416283  0.3458016572507587   T   T   T
  0.5571531303095980  0.7806209896228833  0.3471641164058993   T   T   T
  0.2261145821589413  0.4464896968030793  0.3460526248487183   T   T   T
  0.8927382907693743  0.4464632626520059  0.3456807555134174   T   T   T
  0.5587032240215538  0.4465088153215868  0.3459793518209653   T   T   T
  0.0050693630655979  0.9992556848076199  0.4363569471674053   T   T   T
  0.0035473106029502  0.6704103731231307  0.4354091050608542   T   T   T
  0.6739350451303853  0.0026162039330393  0.4370896000544231   T   T   T
  0.6748536938910946  0.6692288185274181  0.4364098341971709   T   T   T
  0.3395133449619590 -0.0003980843683465  0.4367159571912638   T   T   T
  0.3427347162965921  0.6700897793472412  0.4375301745884957   T   T   T
  0.0040886040915073  0.3331408251649394  0.4386311080250051   T   T   T
  0.6736071404209909  0.3343991725441109  0.4363753676324973   T   T   T
  0.3422900724539600  0.3286294845282315  0.4394072452240544   T   T   T
  0.2991715121070331  0.3909461254177763  0.5172479470463862   T   T   T
  0.1883261792870380  0.4974405383720530  0.5007199358486261   T   T   T
  0.2283720689165353  0.2876795657711793  0.5540335584878179   T   T   T
 
  0.00000000E+00  0.00000000E+00  0.00000000E+00
  0.00000000E+00  0.00000000E+00  0.00000000E+00
  0.00000000E+00  0.00000000E+00  0.00000000E+00
  0.00000000E+00  0.00000000E+00  0.00000000E+00
  0.00000000E+00  0.00000000E+00  0.00000000E+00
  0.00000000E+00  0.00000000E+00  0.00000000E+00
  0.00000000E+00  0.00000000E+00  0.00000000E+00
  0.00000000E+00  0.00000000E+00  0.00000000E+00
  0.00000000E+00  0.00000000E+00  0.00000000E+00
  0.00000000E+00  0.00000000E+00  0.00000000E+00
  0.00000000E+00  0.00000000E+00  0.00000000E+00
  0.00000000E+00  0.00000000E+00  0.00000000E+00
  0.00000000E+00  0.00000000E+00  0.00000000E+00
  0.00000000E+00  0.00000000E+00  0.00000000E+00
  0.00000000E+00  0.00000000E+00  0.00000000E+00
  0.00000000E+00  0.00000000E+00  0.00000000E+00
  0.00000000E+00  0.00000000E+00  0.00000000E+00
  0.00000000E+00  0.00000000E+00  0.00000000E+00
  0.00000000E+00  0.00000000E+00  0.00000000E+00
  0.00000000E+00  0.00000000E+00  0.00000000E+00
  0.00000000E+00  0.00000000E+00  0.00000000E+00
  0.00000000E+00  0.00000000E+00  0.00000000E+00
  0.00000000E+00  0.00000000E+00  0.00000000E+00
  0.00000000E+00  0.00000000E+00  0.00000000E+00
  0.00000000E+00  0.00000000E+00  0.00000000E+00
  0.00000000E+00  0.00000000E+00  0.00000000E+00
  0.00000000E+00  0.00000000E+00  0.00000000E+00
  0.00000000E+00  0.00000000E+00  0.00000000E+00
  0.00000000E+00  0.00000000E+00  0.00000000E+00
  0.00000000E+00  0.00000000E+00  0.00000000E+00
  0.00000000E+00  0.00000000E+00  0.00000000E+00
  0.00000000E+00  0.00000000E+00  0.00000000E+00
  0.00000000E+00  0.00000000E+00  0.00000000E+00
  0.00000000E+00  0.00000000E+00  0.00000000E+00
  0.00000000E+00  0.00000000E+00  0.00000000E+00
  0.00000000E+00  0.00000000E+00  0.00000000E+00
  0.00000000E+00  0.00000000E+00  0.00000000E+00
  0.00000000E+00  0.00000000E+00  0.00000000E+00
  0.00000000E+00  0.00000000E+00  0.00000000E+00
