Pd N O                                  
   1.00000000000000     
     8.2454699999999992    0.0000000000000000    0.0000000000000000
     0.0000000000000000    8.2454699999999992    0.0000000000000000
     0.0000000000000000    0.0000000000000000   25.0000000000000000
   Pd   N    O 
    36     1     3
Selective dynamics
Direct
  0.1666663867650016  0.1666663867650016  0.1833915061249982   F   F   F
  0.1666663867650016  0.8333330534319998  0.1833915061249982   F   F   F
  0.8333330534319998  0.1666663867650016  0.1833915061249982   F   F   F
  0.8333330534319998  0.8333330534319998  0.1833915061249982   F   F   F
  0.4999991602949976  0.1666663867650016  0.1833915061249982   F   F   F
  0.4999991602949976  0.8333330534319998  0.1833915061249982   F   F   F
  0.1666663867650016  0.4999991602949976  0.1833915061249982   F   F   F
  0.8333330534319998  0.4999991602949976  0.1833915061249982   F   F   F
  0.4999991602949976  0.4999991602949976  0.1833915061249982   F   F   F
  0.9998049491873051  0.9990253889703351  0.2617280800191791   T   T   T
  0.0004164911372880  0.6666761928676541  0.2617339814491857   T   T   T
  0.6669510681458712 -0.0001293560147337  0.2615091090585360   T   T   T
  0.6666951468093972  0.6666945590409712  0.2615532136017121   T   T   T
  0.3331716053973268  0.9996328685233165  0.2614577575265388   T   T   T
  0.3340064643246125  0.6666368775184677  0.2614200069469416   T   T   T
  0.0001466906082631  0.3331036338356583  0.2612427697867584   T   T   T
  0.6668239510178214  0.3339688031634900  0.2613466922824316   T   T   T
  0.3335420056975022  0.3338697782212545  0.2614579916629363   T   T   T
  0.1660681153962448  0.1657878970311042  0.3385622412234386   T   T   T
  0.1690283908733555  0.8312262931668675  0.3398857902823672   T   T   T
  0.8330286600552151  0.1670719250648535  0.3389817950426083   T   T   T
  0.8317987311059530  0.8319910653037219  0.3398594332002895   T   T   T
  0.5005916974978759  0.1674601604453855  0.3386246923723328   T   T   T
  0.5000015254502908  0.8336786363350558  0.3394639703397263   T   T   T
  0.1679258274226135  0.5007693771287837  0.3392432542118642   T   T   T
  0.8337563292610228  0.4996123735442227  0.3392268497899036   T   T   T
  0.5007539378891206  0.5016807691498134  0.3398670933123057   T   T   T
  0.0002499380122467  0.0004023377515782  0.4172027202055024   T   T   T
  0.0009248851268649  0.6656291530071846  0.4170907278662972   T   T   T
  0.6665190040557453  0.0037675629226327  0.4171990708843533   T   T   T
  0.6711458151765397  0.6752613531170688  0.4187109178872938   T   T   T
  0.3335253813359874  0.0027710760540352  0.4170932339311251   T   T   T
  0.3311371062869122  0.6696356285400313  0.4204429080564544   T   T   T
  0.0008384839169362  0.3324357587561826  0.4170339032574927   T   T   T
  0.6670640146883324  0.3307161688386514  0.4178980677068022   T   T   T
  0.3317616916543137  0.3312651044470645  0.4160183210652603   T   T   T
  0.5094451419896489  0.5557160764355742  0.5223224129680437   T   T   T
  0.3809863055927003  0.6247033534796141  0.5034516013819891   T   T   T
  0.5108537102979130  0.4983357024348513  0.5674909497126296   T   T   T
  0.6414379955741127  0.5458075401683583  0.4927922231614590   T   T   T
 
  0.00000000E+00  0.00000000E+00  0.00000000E+00
  0.00000000E+00  0.00000000E+00  0.00000000E+00
  0.00000000E+00  0.00000000E+00  0.00000000E+00
  0.00000000E+00  0.00000000E+00  0.00000000E+00
  0.00000000E+00  0.00000000E+00  0.00000000E+00
  0.00000000E+00  0.00000000E+00  0.00000000E+00
  0.00000000E+00  0.00000000E+00  0.00000000E+00
  0.00000000E+00  0.00000000E+00  0.00000000E+00
  0.00000000E+00  0.00000000E+00  0.00000000E+00
  0.00000000E+00  0.00000000E+00  0.00000000E+00
  0.00000000E+00  0.00000000E+00  0.00000000E+00
  0.00000000E+00  0.00000000E+00  0.00000000E+00
  0.00000000E+00  0.00000000E+00  0.00000000E+00
  0.00000000E+00  0.00000000E+00  0.00000000E+00
  0.00000000E+00  0.00000000E+00  0.00000000E+00
  0.00000000E+00  0.00000000E+00  0.00000000E+00
  0.00000000E+00  0.00000000E+00  0.00000000E+00
  0.00000000E+00  0.00000000E+00  0.00000000E+00
  0.00000000E+00  0.00000000E+00  0.00000000E+00
  0.00000000E+00  0.00000000E+00  0.00000000E+00
  0.00000000E+00  0.00000000E+00  0.00000000E+00
  0.00000000E+00  0.00000000E+00  0.00000000E+00
  0.00000000E+00  0.00000000E+00  0.00000000E+00
  0.00000000E+00  0.00000000E+00  0.00000000E+00
  0.00000000E+00  0.00000000E+00  0.00000000E+00
  0.00000000E+00  0.00000000E+00  0.00000000E+00
  0.00000000E+00  0.00000000E+00  0.00000000E+00
  0.00000000E+00  0.00000000E+00  0.00000000E+00
  0.00000000E+00  0.00000000E+00  0.00000000E+00
  0.00000000E+00  0.00000000E+00  0.00000000E+00
  0.00000000E+00  0.00000000E+00  0.00000000E+00
  0.00000000E+00  0.00000000E+00  0.00000000E+00
  0.00000000E+00  0.00000000E+00  0.00000000E+00
  0.00000000E+00  0.00000000E+00  0.00000000E+00
  0.00000000E+00  0.00000000E+00  0.00000000E+00
  0.00000000E+00  0.00000000E+00  0.00000000E+00
  0.00000000E+00  0.00000000E+00  0.00000000E+00
  0.00000000E+00  0.00000000E+00  0.00000000E+00
  0.00000000E+00  0.00000000E+00  0.00000000E+00
  0.00000000E+00  0.00000000E+00  0.00000000E+00
