H                                       
   1.00000000000000     
    15.0000000000000000    0.0000000000000000    0.0000000000000000
     0.0000000000000000   16.0000000000000000    0.0000000000000000
     0.0000000000000000    0.0000000000000000   17.0000000000000000
   H 
     2
Selective dynamics
Direct
  0.4999999999995132  0.4999713734662756  0.4999999999809335   T   T   T
  0.5000000000004868  0.5469036265337244  0.5000000000190665   T   T   T
 
  0.00000000E+00  0.00000000E+00  0.00000000E+00
  0.00000000E+00  0.00000000E+00  0.00000000E+00
