Pd O                                    
   1.00000000000000     
     8.2454699999999992    0.0000000000000000    0.0000000000000000
     0.0000000000000000    8.2454699999999992    0.0000000000000000
     0.0000000000000000    0.0000000000000000   25.0000000000000000
   Pd   O 
    36     1
Selective dynamics
Direct
  0.1666663867650016  0.1666663867650016  0.1833915061249982   F   F   F
  0.1666663867650016  0.8333330534319998  0.1833915061249982   F   F   F
  0.8333330534319998  0.1666663867650016  0.1833915061249982   F   F   F
  0.8333330534319998  0.8333330534319998  0.1833915061249982   F   F   F
  0.4999991602949976  0.1666663867650016  0.1833915061249982   F   F   F
  0.4999991602949976  0.8333330534319998  0.1833915061249982   F   F   F
  0.1666663867650016  0.4999991602949976  0.1833915061249982   F   F   F
  0.8333330534319998  0.4999991602949976  0.1833915061249982   F   F   F
  0.4999991602949976  0.4999991602949976  0.1833915061249982   F   F   F
  0.0004701394267958 -0.0014728368169102  0.2615293358369454   T   T   T
  0.0004696362007575  0.6660879073038529  0.2616839782554246   T   T   T
  0.6680615425422912  0.9986373155582648  0.2611731484529026   T   T   T
  0.6681395867286904  0.6659460965249993  0.2615075254186142   T   T   T
  0.3328426737088450 -0.0014300318522213  0.2611198830500784   T   T   T
  0.3329084142136402  0.6660611710730823  0.2615512299547396   T   T   T
  0.0003761088181173  0.3333809169748481  0.2614930929799124   T   T   T
  0.6680851094458747  0.3334956510008278  0.2611978167005680   T   T   T
  0.3329729015911082  0.3334457539574393  0.2611525607129443   T   T   T
  0.1664519248395823  0.1653257113225657  0.3389324303838459   T   T   T
  0.1686252403712183  0.8332275125622296  0.3405320146919320   T   T   T
  0.8354855290594815  0.1651394722925051  0.3389992938013150   T   T   T
  0.8332621128795633  0.8330024170030382  0.3405639992794545   T   T   T
  0.5009148746840536  0.1655292487491916  0.3365089177923108   T   T   T
  0.5008903563496153  0.8310858109734228  0.3389281579187590   T   T   T
  0.1684769237247647  0.4976388583458458  0.3404128819136116   T   T   T
  0.8332571382468454  0.4976153439080259  0.3404305898888425   T   T   T
  0.5008256405141920  0.5001196550417997  0.3388485390825498   T   T   T
  0.0012267376263734 -0.0016171891428647  0.4183327710634487   T   T   T
  0.0011971791712391  0.6650210634023521  0.4182020081258732   T   T   T
  0.6682441084016703  0.9980125378330746  0.4185098553645026   T   T   T
  0.6676528694094805  0.6649399752241205  0.4181578563648520   T   T   T
  0.3342933005362366 -0.0017693478236200  0.4186632477356886   T   T   T
  0.3344613076135055  0.6650925990923958  0.4180656164329253   T   T   T
  0.0012760656111176  0.3314978478511279  0.4181573135539567   T   T   T
  0.6683296924501066  0.3320202128409299  0.4185523592944890   T   T   T
  0.3344782057309132  0.3323061166762479  0.4183859711893494   T   T   T
  0.5012631056099335  0.1651376183789095  0.4542501753921939   T   T   T
 
  0.00000000E+00  0.00000000E+00  0.00000000E+00
  0.00000000E+00  0.00000000E+00  0.00000000E+00
  0.00000000E+00  0.00000000E+00  0.00000000E+00
  0.00000000E+00  0.00000000E+00  0.00000000E+00
  0.00000000E+00  0.00000000E+00  0.00000000E+00
  0.00000000E+00  0.00000000E+00  0.00000000E+00
  0.00000000E+00  0.00000000E+00  0.00000000E+00
  0.00000000E+00  0.00000000E+00  0.00000000E+00
  0.00000000E+00  0.00000000E+00  0.00000000E+00
  0.00000000E+00  0.00000000E+00  0.00000000E+00
  0.00000000E+00  0.00000000E+00  0.00000000E+00
  0.00000000E+00  0.00000000E+00  0.00000000E+00
  0.00000000E+00  0.00000000E+00  0.00000000E+00
  0.00000000E+00  0.00000000E+00  0.00000000E+00
  0.00000000E+00  0.00000000E+00  0.00000000E+00
  0.00000000E+00  0.00000000E+00  0.00000000E+00
  0.00000000E+00  0.00000000E+00  0.00000000E+00
  0.00000000E+00  0.00000000E+00  0.00000000E+00
  0.00000000E+00  0.00000000E+00  0.00000000E+00
  0.00000000E+00  0.00000000E+00  0.00000000E+00
  0.00000000E+00  0.00000000E+00  0.00000000E+00
  0.00000000E+00  0.00000000E+00  0.00000000E+00
  0.00000000E+00  0.00000000E+00  0.00000000E+00
  0.00000000E+00  0.00000000E+00  0.00000000E+00
  0.00000000E+00  0.00000000E+00  0.00000000E+00
  0.00000000E+00  0.00000000E+00  0.00000000E+00
  0.00000000E+00  0.00000000E+00  0.00000000E+00
  0.00000000E+00  0.00000000E+00  0.00000000E+00
  0.00000000E+00  0.00000000E+00  0.00000000E+00
  0.00000000E+00  0.00000000E+00  0.00000000E+00
  0.00000000E+00  0.00000000E+00  0.00000000E+00
  0.00000000E+00  0.00000000E+00  0.00000000E+00
  0.00000000E+00  0.00000000E+00  0.00000000E+00
  0.00000000E+00  0.00000000E+00  0.00000000E+00
  0.00000000E+00  0.00000000E+00  0.00000000E+00
  0.00000000E+00  0.00000000E+00  0.00000000E+00
  0.00000000E+00  0.00000000E+00  0.00000000E+00
