Pd N O                                  
   1.00000000000000     
     8.2454599999999996    0.0000000000000000    0.0000000000000000
    -4.1227299999999998    7.1407800000000003    0.0000000000000000
     0.0000000000000000    0.0000000000000000   25.0000000000000000
   Pd   N    O 
    36     1     3
Selective dynamics
Direct
  0.0000000000000000  0.0000000000000000  0.1653521567560006   F   F   F
  0.9999995957370018  0.6666666666669983  0.1653521567560006   F   F   F
  0.6666662624040001  0.0000000000000000  0.1653521567560006   F   F   F
  0.6666658581410019  0.6666666666669983  0.1653521567560006   F   F   F
  0.3333331777919994  0.0000000000000000  0.1653521567560006   F   F   F
  0.3333327735290013  0.6666666666669983  0.1653521567560006   F   F   F
  0.9999999492560008  0.3333330763040010  0.1653521567560006   F   F   F
  0.6666662116600008  0.3333330763040010  0.1653521567560006   F   F   F
  0.3333331270480002  0.3333330763040010  0.1653521567560006   F   F   F
  0.1098910474759872  0.2213300879748396  0.2560230332167704   T   T   T
  0.1095184457856976  0.8875770240769102  0.2560485592329653   T   T   T
  0.7762336217926235  0.2213562677394430  0.2566766083540927   T   T   T
  0.7762154304875210  0.8876182085010689  0.2566886798837298   T   T   T
  0.4435145014278856  0.2211407062945081  0.2563332545875663   T   T   T
  0.4439633711560284  0.8883766617877085  0.2564457550325649   T   T   T
  0.1094901539473444  0.5547029368089121  0.2560502722421719   T   T   T
  0.7764300487961713  0.5545877520350402  0.2568541458841677   T   T   T
  0.4435146448479930  0.5552088722056527  0.2563475076061369   T   T   T
  0.2195055030199320  0.1088839803732410  0.3450831521765574   T   T   T
  0.2205740612737662  0.7765478038048063  0.3450522751584044   T   T   T
  0.8870463191688700  0.1097797533542313  0.3456823609774204   T   T   T
  0.8859465695976515  0.7759878579356465  0.3463074903713417   T   T   T
  0.5545864938910553  0.1115351043572434  0.3466840564626641   T   T   T
  0.5545788433112835  0.7756452219389214  0.3467314105213153   T   T   T
  0.2194808389932438  0.4431545009295432  0.3450878594081523   T   T   T
  0.8859227655133662  0.4424480067492170  0.3463174440630133   T   T   T
  0.5531465501255739  0.4429012294219773  0.3458461788196966   T   T   T
  0.9979631152333426 -0.0009553691527840  0.4362799641920635   T   T   T
  0.0016388869688269  0.6671516035760230  0.4357537958350285   T   T   T
  0.6637265787857815 -0.0016902370078492  0.4365572989590171   T   T   T
  0.6637732008828768  0.6640792797376193  0.4385164553161808   T   T   T
  0.3297305918966840 -0.0026823669622779  0.4363049043109315   T   T   T
  0.3296442302630276  0.6650154404564300  0.4363206555619018   T   T   T
  0.9979362354506076  0.3314953132763578  0.4362927216831641   T   T   T
  0.6638484311628441  0.3327613664394707  0.4384686321029195   T   T   T
  0.3269896409541089  0.3298188155130559  0.4351032523044808   T   T   T
  0.6529395042654739  0.4932464986152922  0.5483310705906453   T   T   T
  0.6570776639228653  0.3578862404829756  0.5227928978065604   T   T   T
  0.6593607110111553  0.6340429559552336  0.5229296034057692   T   T   T
  0.6432152746876884  0.4882931905527011  0.5972319031347803   T   T   T
 
  0.00000000E+00  0.00000000E+00  0.00000000E+00
  0.00000000E+00  0.00000000E+00  0.00000000E+00
  0.00000000E+00  0.00000000E+00  0.00000000E+00
  0.00000000E+00  0.00000000E+00  0.00000000E+00
  0.00000000E+00  0.00000000E+00  0.00000000E+00
  0.00000000E+00  0.00000000E+00  0.00000000E+00
  0.00000000E+00  0.00000000E+00  0.00000000E+00
  0.00000000E+00  0.00000000E+00  0.00000000E+00
  0.00000000E+00  0.00000000E+00  0.00000000E+00
  0.00000000E+00  0.00000000E+00  0.00000000E+00
  0.00000000E+00  0.00000000E+00  0.00000000E+00
  0.00000000E+00  0.00000000E+00  0.00000000E+00
  0.00000000E+00  0.00000000E+00  0.00000000E+00
  0.00000000E+00  0.00000000E+00  0.00000000E+00
  0.00000000E+00  0.00000000E+00  0.00000000E+00
  0.00000000E+00  0.00000000E+00  0.00000000E+00
  0.00000000E+00  0.00000000E+00  0.00000000E+00
  0.00000000E+00  0.00000000E+00  0.00000000E+00
  0.00000000E+00  0.00000000E+00  0.00000000E+00
  0.00000000E+00  0.00000000E+00  0.00000000E+00
  0.00000000E+00  0.00000000E+00  0.00000000E+00
  0.00000000E+00  0.00000000E+00  0.00000000E+00
  0.00000000E+00  0.00000000E+00  0.00000000E+00
  0.00000000E+00  0.00000000E+00  0.00000000E+00
  0.00000000E+00  0.00000000E+00  0.00000000E+00
  0.00000000E+00  0.00000000E+00  0.00000000E+00
  0.00000000E+00  0.00000000E+00  0.00000000E+00
  0.00000000E+00  0.00000000E+00  0.00000000E+00
  0.00000000E+00  0.00000000E+00  0.00000000E+00
  0.00000000E+00  0.00000000E+00  0.00000000E+00
  0.00000000E+00  0.00000000E+00  0.00000000E+00
  0.00000000E+00  0.00000000E+00  0.00000000E+00
  0.00000000E+00  0.00000000E+00  0.00000000E+00
  0.00000000E+00  0.00000000E+00  0.00000000E+00
  0.00000000E+00  0.00000000E+00  0.00000000E+00
  0.00000000E+00  0.00000000E+00  0.00000000E+00
  0.00000000E+00  0.00000000E+00  0.00000000E+00
  0.00000000E+00  0.00000000E+00  0.00000000E+00
  0.00000000E+00  0.00000000E+00  0.00000000E+00
  0.00000000E+00  0.00000000E+00  0.00000000E+00
