Pd                                      
   1.00000000000000     
     8.2454599999999996    0.0000000000000000    0.0000000000000000
    -4.1227299999999998    7.1407800000000003    0.0000000000000000
     0.0000000000000000    0.0000000000000000   25.0000000000000000
   Pd
    36
Selective dynamics
Direct
  0.0000000000000000  0.0000000000000000  0.1653521567560006   F   F   F
  0.9999995957370018  0.6666666666669983  0.1653521567560006   F   F   F
  0.6666662624040001  0.0000000000000000  0.1653521567560006   F   F   F
  0.6666658581410019  0.6666666666669983  0.1653521567560006   F   F   F
  0.3333331777919994  0.0000000000000000  0.1653521567560006   F   F   F
  0.3333327735290013  0.6666666666669983  0.1653521567560006   F   F   F
  0.9999999492560008  0.3333330763040010  0.1653521567560006   F   F   F
  0.6666662116600008  0.3333330763040010  0.1653521567560006   F   F   F
  0.3333331270480002  0.3333330763040010  0.1653521567560006   F   F   F
  0.1111110254350010  0.2222220508700019  0.2562990118243369   T   T   T
  0.1111106211720028  0.8888887175359983  0.2562990118243369   T   T   T
  0.7777772878390010  0.2222220508700019  0.2562990118243369   T   T   T
  0.7777768835760028  0.8888887175359983  0.2562990118243369   T   T   T
  0.4444442032270004  0.2222220508700019  0.2562990118243369   T   T   T
  0.4444437989640022  0.8888887175359983  0.2562990118243369   T   T   T
  0.1111109746910017  0.5555551271740029  0.2562990118243369   T   T   T
  0.7777772370950018  0.5555551271740029  0.2562990118243369   T   T   T
  0.4444441524830012  0.5555551271740029  0.2562990118243369   T   T   T
  0.2222221016140011  0.1111110254350010  0.3457376240380912   T   T   T
  0.2222216973510029  0.7777776921009973  0.3457376240380912   T   T   T
  0.8888883640169993  0.1111110254350010  0.3457376240380912   T   T   T
  0.8888879597540011  0.7777776921009973  0.3457376240380912   T   T   T
  0.5555552794060006  0.1111110254350010  0.3457376240380912   T   T   T
  0.5555548751430024  0.7777776921009973  0.3457376240380912   T   T   T
  0.2222220508700019  0.4444441017390020  0.3457376240380912   T   T   T
  0.8888883132730001  0.4444441017390020  0.3457376240380912   T   T   T
  0.5555552286620014  0.4444441017390020  0.3457376240380912   T   T   T
  0.0000000000000000  0.0000000000000000  0.4366833843134803   T   T   T
  0.9999995957370018  0.6666666666669983  0.4366833843134803   T   T   T
  0.6666662624040001 -0.0000000000000000  0.4366833843134803   T   T   T
  0.6666658581410019  0.6666666666669983  0.4366833843134803   T   T   T
  0.3333331777919994 -0.0000000000000000  0.4366833843134803   T   T   T
  0.3333327735290013  0.6666666666669983  0.4366833843134803   T   T   T
  0.9999999492560008  0.3333330763040010  0.4366833843134803   T   T   T
  0.6666662116600008  0.3333330763040010  0.4366833843134803   T   T   T
  0.3333331270480002  0.3333330763040010  0.4366833843134803   T   T   T
 
  0.00000000E+00  0.00000000E+00  0.00000000E+00
  0.00000000E+00  0.00000000E+00  0.00000000E+00
  0.00000000E+00  0.00000000E+00  0.00000000E+00
  0.00000000E+00  0.00000000E+00  0.00000000E+00
  0.00000000E+00  0.00000000E+00  0.00000000E+00
  0.00000000E+00  0.00000000E+00  0.00000000E+00
  0.00000000E+00  0.00000000E+00  0.00000000E+00
  0.00000000E+00  0.00000000E+00  0.00000000E+00
  0.00000000E+00  0.00000000E+00  0.00000000E+00
  0.00000000E+00  0.00000000E+00  0.00000000E+00
  0.00000000E+00  0.00000000E+00  0.00000000E+00
  0.00000000E+00  0.00000000E+00  0.00000000E+00
  0.00000000E+00  0.00000000E+00  0.00000000E+00
  0.00000000E+00  0.00000000E+00  0.00000000E+00
  0.00000000E+00  0.00000000E+00  0.00000000E+00
  0.00000000E+00  0.00000000E+00  0.00000000E+00
  0.00000000E+00  0.00000000E+00  0.00000000E+00
  0.00000000E+00  0.00000000E+00  0.00000000E+00
  0.00000000E+00  0.00000000E+00  0.00000000E+00
  0.00000000E+00  0.00000000E+00  0.00000000E+00
  0.00000000E+00  0.00000000E+00  0.00000000E+00
  0.00000000E+00  0.00000000E+00  0.00000000E+00
  0.00000000E+00  0.00000000E+00  0.00000000E+00
  0.00000000E+00  0.00000000E+00  0.00000000E+00
  0.00000000E+00  0.00000000E+00  0.00000000E+00
  0.00000000E+00  0.00000000E+00  0.00000000E+00
  0.00000000E+00  0.00000000E+00  0.00000000E+00
  0.00000000E+00  0.00000000E+00  0.00000000E+00
  0.00000000E+00  0.00000000E+00  0.00000000E+00
  0.00000000E+00  0.00000000E+00  0.00000000E+00
  0.00000000E+00  0.00000000E+00  0.00000000E+00
  0.00000000E+00  0.00000000E+00  0.00000000E+00
  0.00000000E+00  0.00000000E+00  0.00000000E+00
  0.00000000E+00  0.00000000E+00  0.00000000E+00
  0.00000000E+00  0.00000000E+00  0.00000000E+00
  0.00000000E+00  0.00000000E+00  0.00000000E+00
