Pd N O                                  
   1.00000000000000     
     8.2454699999999992    0.0000000000000000    0.0000000000000000
     0.0000000000000000    8.2454699999999992    0.0000000000000000
     0.0000000000000000    0.0000000000000000   25.0000000000000000
   Pd   N    O 
    36     1     3
Selective dynamics
Direct
  0.1666663867650016  0.1666663867650016  0.1833915061249982   F   F   F
  0.1666663867650016  0.8333330534319998  0.1833915061249982   F   F   F
  0.8333330534319998  0.1666663867650016  0.1833915061249982   F   F   F
  0.8333330534319998  0.8333330534319998  0.1833915061249982   F   F   F
  0.4999991602949976  0.1666663867650016  0.1833915061249982   F   F   F
  0.4999991602949976  0.8333330534319998  0.1833915061249982   F   F   F
  0.1666663867650016  0.4999991602949976  0.1833915061249982   F   F   F
  0.8333330534319998  0.4999991602949976  0.1833915061249982   F   F   F
  0.4999991602949976  0.4999991602949976  0.1833915061249982   F   F   F
  0.0005859951371964  0.9999458360154451  0.2612300359171477   T   T   T
  0.0001949704018455  0.6667226083730916  0.2614806610490223   T   T   T
  0.6670829921051806  0.0006509058434484  0.2617726923066723   T   T   T
  0.6665989848597556  0.6671497969176891  0.2617569402279528   T   T   T
  0.3343223697978174  0.9988076962490479  0.2613235811912419   T   T   T
  0.3342193640242126  0.6662984196663760  0.2615000246028752   T   T   T
  0.9995515268806604  0.3334567054634031  0.2613431871569337   T   T   T
  0.6666286292685102  0.3343742727512566  0.2615476665622904   T   T   T
  0.3336197330389216  0.3330657180315068  0.2614349016529139   T   T   T
  0.1666950766620005  0.1654677266639747  0.3383816513393917   T   T   T
  0.1691312271405677  0.8318746921304307  0.3393740677073954   T   T   T
  0.8325785671538587  0.1688426588712033  0.3393764109533942   T   T   T
  0.8342105430400065  0.8350820906075547  0.3390690180766183   T   T   T
  0.5016116115198560  0.1677118427480014  0.3393809461147160   T   T   T
  0.5020554920922563  0.8327125645754657  0.3402507861819033   T   T   T
  0.1663075510735239  0.5001102596688936  0.3387114105538125   T   T   T
  0.8317401157352925  0.5013098207178759  0.3398133354480791   T   T   T
  0.4997976208328913  0.5007614016309159  0.3399075534588240   T   T   T
  0.0014711288697492  0.0005599827538542  0.4172025095750329   T   T   T
  0.0017579890018663  0.6676952706482847  0.4170466340849758   T   T   T
  0.6677252738881341  0.0036366668476614  0.4177513550565524   T   T   T
  0.6704268683288985  0.6792756883619708  0.4202275832716391   T   T   T
  0.3333139111866392  0.0007936179726340  0.4171801266682949   T   T   T
  0.3284011968644965  0.6675715275645568  0.4192260698513418   T   T   T
  0.0014041988619866  0.3322638443902957  0.4168481527349523   T   T   T
  0.6626573129511065  0.3270241364882245  0.4206908165077792   T   T   T
  0.3295622903661088  0.3302914414367459  0.4164204404730646   T   T   T
  0.5670653399092884  0.6263705165772544  0.5104011586269612   T   T   T
  0.4193450899636565  0.5983301130617990  0.5037892714602854   T   T   T
  0.6331942768507468  0.6927350700393777  0.5476315154588257   T   T   T
  0.7069107487887540  0.4959256765519012  0.4750615881270351   T   T   T
 
  0.00000000E+00  0.00000000E+00  0.00000000E+00
  0.00000000E+00  0.00000000E+00  0.00000000E+00
  0.00000000E+00  0.00000000E+00  0.00000000E+00
  0.00000000E+00  0.00000000E+00  0.00000000E+00
  0.00000000E+00  0.00000000E+00  0.00000000E+00
  0.00000000E+00  0.00000000E+00  0.00000000E+00
  0.00000000E+00  0.00000000E+00  0.00000000E+00
  0.00000000E+00  0.00000000E+00  0.00000000E+00
  0.00000000E+00  0.00000000E+00  0.00000000E+00
  0.00000000E+00  0.00000000E+00  0.00000000E+00
  0.00000000E+00  0.00000000E+00  0.00000000E+00
  0.00000000E+00  0.00000000E+00  0.00000000E+00
  0.00000000E+00  0.00000000E+00  0.00000000E+00
  0.00000000E+00  0.00000000E+00  0.00000000E+00
  0.00000000E+00  0.00000000E+00  0.00000000E+00
  0.00000000E+00  0.00000000E+00  0.00000000E+00
  0.00000000E+00  0.00000000E+00  0.00000000E+00
  0.00000000E+00  0.00000000E+00  0.00000000E+00
  0.00000000E+00  0.00000000E+00  0.00000000E+00
  0.00000000E+00  0.00000000E+00  0.00000000E+00
  0.00000000E+00  0.00000000E+00  0.00000000E+00
  0.00000000E+00  0.00000000E+00  0.00000000E+00
  0.00000000E+00  0.00000000E+00  0.00000000E+00
  0.00000000E+00  0.00000000E+00  0.00000000E+00
  0.00000000E+00  0.00000000E+00  0.00000000E+00
  0.00000000E+00  0.00000000E+00  0.00000000E+00
  0.00000000E+00  0.00000000E+00  0.00000000E+00
  0.00000000E+00  0.00000000E+00  0.00000000E+00
  0.00000000E+00  0.00000000E+00  0.00000000E+00
  0.00000000E+00  0.00000000E+00  0.00000000E+00
  0.00000000E+00  0.00000000E+00  0.00000000E+00
  0.00000000E+00  0.00000000E+00  0.00000000E+00
  0.00000000E+00  0.00000000E+00  0.00000000E+00
  0.00000000E+00  0.00000000E+00  0.00000000E+00
  0.00000000E+00  0.00000000E+00  0.00000000E+00
  0.00000000E+00  0.00000000E+00  0.00000000E+00
  0.00000000E+00  0.00000000E+00  0.00000000E+00
  0.00000000E+00  0.00000000E+00  0.00000000E+00
  0.00000000E+00  0.00000000E+00  0.00000000E+00
  0.00000000E+00  0.00000000E+00  0.00000000E+00
