Pd N O                                  
   1.00000000000000     
     8.2454699999999992    0.0000000000000000    0.0000000000000000
     0.0000000000000000    8.2454699999999992    0.0000000000000000
     0.0000000000000000    0.0000000000000000   25.0000000000000000
   Pd   N    O 
    36     1     1
Selective dynamics
Direct
  0.1666663867650016  0.1666663867650016  0.1833915061249982   F   F   F
  0.1666663867650016  0.8333330534319998  0.1833915061249982   F   F   F
  0.8333330534319998  0.1666663867650016  0.1833915061249982   F   F   F
  0.8333330534319998  0.8333330534319998  0.1833915061249982   F   F   F
  0.4999991602949976  0.1666663867650016  0.1833915061249982   F   F   F
  0.4999991602949976  0.8333330534319998  0.1833915061249982   F   F   F
  0.1666663867650016  0.4999991602949976  0.1833915061249982   F   F   F
  0.8333330534319998  0.4999991602949976  0.1833915061249982   F   F   F
  0.4999991602949976  0.4999991602949976  0.1833915061249982   F   F   F
  0.0000454860458333  0.0000747661304776  0.2613890195680939   T   T   T
  0.0000659306382675  0.6673791704369225  0.2614449323691908   T   T   T
  0.6673457374382986  0.0000863128367582  0.2614481575770923   T   T   T
  0.6671392855530759  0.6671483093746384  0.2614004604002069   T   T   T
  0.3327495908767060  0.0000788910803176  0.2614400419596661   T   T   T
  0.3330093421798130  0.6671398750114698  0.2613906925595911   T   T   T
  0.0000534579109438  0.3327854695338116  0.2614467212144396   T   T   T
  0.6671300740064056  0.3330188111988979  0.2614044990174604   T   T   T
  0.3329977227869148  0.3330115243511527  0.2613941539824614   T   T   T
  0.1678594741313530  0.1679437955161404  0.3399571868284574   T   T   T
  0.1678980574244787  0.8323593912380634  0.3399600246710134   T   T   T
  0.8322971936795532  0.1679622364359371  0.3399713786588822   T   T   T
  0.8323106516653469  0.8323929197866800  0.3399710766462365   T   T   T
  0.5000785340627261  0.1663316049990895  0.3390991927609295   T   T   T
  0.5000948114118229  0.8339907191969764  0.3390989837755790   T   T   T
  0.1663226049083543  0.5001515042888116  0.3391025428759308   T   T   T
  0.8339885012502891  0.5001700546795043  0.3391007785223729   T   T   T
  0.5001321780431720  0.5001522189063548  0.3378342976296598   T   T   T
  0.0000820212574935  0.0001870629633321  0.4175470301355664   T   T   T
  0.0002360008131178  0.6667494007548757  0.4175448006810918   T   T   T
  0.6666285957043888  0.0002553015061155  0.4175480049351187   T   T   T
  0.6659537178388881  0.6659468475858520  0.4195960271795053   T   T   T
  0.3334855645005783  0.0002059618336104  0.4175366519367557   T   T   T
  0.3345621316956690  0.6658662487329009  0.4195913145597767   T   T   T
  0.0001946652115951  0.3336019810672306  0.4175445326644430   T   T   T
  0.6658836176306122  0.3345481928415623  0.4196001839423253   T   T   T
  0.3345354035947100  0.3345195357825376  0.4195827376578038   T   T   T
  0.5008072343698562  0.5006910987057959  0.4611521294252445   T   T   T
  0.5011097849663592  0.5008301114568584  0.5100613132529630   T   T   T
 
  0.00000000E+00  0.00000000E+00  0.00000000E+00
  0.00000000E+00  0.00000000E+00  0.00000000E+00
  0.00000000E+00  0.00000000E+00  0.00000000E+00
  0.00000000E+00  0.00000000E+00  0.00000000E+00
  0.00000000E+00  0.00000000E+00  0.00000000E+00
  0.00000000E+00  0.00000000E+00  0.00000000E+00
  0.00000000E+00  0.00000000E+00  0.00000000E+00
  0.00000000E+00  0.00000000E+00  0.00000000E+00
  0.00000000E+00  0.00000000E+00  0.00000000E+00
  0.00000000E+00  0.00000000E+00  0.00000000E+00
  0.00000000E+00  0.00000000E+00  0.00000000E+00
  0.00000000E+00  0.00000000E+00  0.00000000E+00
  0.00000000E+00  0.00000000E+00  0.00000000E+00
  0.00000000E+00  0.00000000E+00  0.00000000E+00
  0.00000000E+00  0.00000000E+00  0.00000000E+00
  0.00000000E+00  0.00000000E+00  0.00000000E+00
  0.00000000E+00  0.00000000E+00  0.00000000E+00
  0.00000000E+00  0.00000000E+00  0.00000000E+00
  0.00000000E+00  0.00000000E+00  0.00000000E+00
  0.00000000E+00  0.00000000E+00  0.00000000E+00
  0.00000000E+00  0.00000000E+00  0.00000000E+00
  0.00000000E+00  0.00000000E+00  0.00000000E+00
  0.00000000E+00  0.00000000E+00  0.00000000E+00
  0.00000000E+00  0.00000000E+00  0.00000000E+00
  0.00000000E+00  0.00000000E+00  0.00000000E+00
  0.00000000E+00  0.00000000E+00  0.00000000E+00
  0.00000000E+00  0.00000000E+00  0.00000000E+00
  0.00000000E+00  0.00000000E+00  0.00000000E+00
  0.00000000E+00  0.00000000E+00  0.00000000E+00
  0.00000000E+00  0.00000000E+00  0.00000000E+00
  0.00000000E+00  0.00000000E+00  0.00000000E+00
  0.00000000E+00  0.00000000E+00  0.00000000E+00
  0.00000000E+00  0.00000000E+00  0.00000000E+00
  0.00000000E+00  0.00000000E+00  0.00000000E+00
  0.00000000E+00  0.00000000E+00  0.00000000E+00
  0.00000000E+00  0.00000000E+00  0.00000000E+00
  0.00000000E+00  0.00000000E+00  0.00000000E+00
  0.00000000E+00  0.00000000E+00  0.00000000E+00
